(declare-const a Real)
(declare-const b Real)
(declare-const c Real)
(assert (= (* a b c) 1))
(assert (> a 0))
(assert (> b 0))
(assert (> c 0))
(assert (not (<= (+ (* -226220288 (pow b 4)) (* -173529344 (pow a 4)) (* -452984832 (pow a (pow 3 -1)) (pow b (/ 11 3))) (* -226492416 (pow a (/ 10 3)) (pow b (/ 2 3))) (* 1664928 (pow (+ a b) 3) (pow (+ (* 2 (pow a 2)) (* 2 (pow b 2))) (/ 1 2))) (* 247110656 b (pow a 3)) (* 805477376 a (pow b 3))) 0)))
(check-sat)
(get-model)
(exit)